Si
1.0
0.0 2.75 2.75
2.75 0.0 2.75
2.75 2.75 0.0
Si 
2
Direct 
0 0 0
0.25 0.25 0.25
